500
1000
495
493
491
491
491
490
490
490
488
488
486
486
486
484
484
484
484
483
482
482
482
478
477
476
476
473
473
470
470
469
468
468
467
467
467
467
466
466
466
465
465
464
463
460
459
459
459
457
457
456
455
455
455
453
453
452
451
450
449
449
449
448
448
448
448
448
447
446
446
444
444
443
442
440
440
439
439
436
434
433
432
431
431
430
427
427
426
426
426
426
425
424
424
424
423
423
419
419
418
417
416
415
415
415
414
413
411
411
410
409
409
407
407
407
406
406
405
404
404
403
403
402
401
400
399
399
399
398
397
397
397
396
396
395
394
394
394
394
393
393
392
392
391
390
390
389
388
387
387
386
385
384
383
381
381
381
381
380
379
378
378
377
376
374
373
373
373
373
372
371
370
370
370
369
369
369
369
369
368
368
366
365
364
364
364
364
362
362
362
361
360
360
360
359
358
358
357
356
356
356
355
355
355
353
353
352
352
351
351
350
350
350
349
348
348
348
346
346
346
346
346
343
343
343
341
340
340
339
337
337
336
336
336
334
331
331
331
331
330
328
327
325
324
323
323
321
318
318
318
315
315
315
313
313
313
312
311
309
309
309
309
308
308
307
307
306
306
305
304
304
302
302
301
300
299
298
297
297
297
296
296
296
296
295
294
294
293
293
291
290
289
289
289
288
287
285
283
283
282
280
280
280
279
279
279
278
278
277
277
277
277
276
275
275
275
275
274
274
273
272
272
272
271
270
270
270
269
269
269
268
268
267
266
266
264
264
264
264
264
264
263
261
260
260
260
259
259
258
258
257
256
256
254
254
253
252
252
251
250
249
249
249
249
248
248
246
245
245
244
243
243
243
243
240
240
240
239
238
238
238
238
237
237
236
235
235
234
232
231
231
231
230
229
228
228
227
226
226
223
223
222
222
221
221
220
220
219
218
217
216
216
214
214
214
214
212
212
212
212
211
210
210
210
209
207
206
205
203
202
202
201
201
200
199
199
198
198
197
196
195
195
194
193
193
192
192
192
191
191
190
190
190
189
189
188
188
187
186
186
186
185
185
185
184
183
182
182
181
180
180
180
179
179
179
179
178
178
178
177
177
176
176
176
175
174
174
173
173
171
171
171
170
170
170
168
168
167
167
167
167
